param set_len = 30;
param target_sum = 4458431;
param values := [1] 319221 [2] 236786 [3] 49823 [4] 59955 [5] 517224 [6] 333899 [7] 266271 [8] 504347 [9] 421795 [10] 305034 [11] 191797 [12] 20761 [13] 209650 [14] 129750 [15] 207586 [16] 420976 [17] 71327 [18] 170948 [19] 234615 [20] 474851 [21] 385721 [22] 430441 [23] 470330 [24] 379833 [25] 203254 [26] 40875 [27] 289655 [28] 418882 [29] 506225 [30] 187233 ;
